(set-info :smt-lib-version 2.6)
(set-logic QF_ALIA)
(set-info :notes "Adapted for Array Sum evaluation.
Base file: qlock.base.13.smt2")
(set-info :source |
Unbounded version of the queue lock algorithm.
|)
(set-info :category "industrial")
(declare-fun x_0 () Int)
(declare-fun x_1 () Int)
(declare-fun x_2 () (Array Int Int))
(declare-fun x_3 () Int)
(declare-fun x_4 () Int)
(declare-fun x_5 () Bool)
(declare-fun x_6 () Int)
(declare-fun x_7 () (Array Int Int))
(declare-fun x_8 () Int)
(declare-fun x_9 () (Array Int Int))
(declare-fun x_10 () Int)
(declare-fun x_11 () Bool)
(declare-fun x_12 () Int)
(declare-fun x_13 () Int)
(declare-fun x_14 () Int)
(declare-fun x_15 () Int)
(declare-fun x_16 () Int)
(declare-fun x_17 () (Array Int Int))
(declare-fun x_18 () Int)
(declare-fun x_19 () Int)
(declare-fun x_20 () Int)
(declare-fun x_21 () Int)
(declare-fun x_22 () Int)
(declare-fun x_23 () (Array Int Int))
(declare-fun x_24 () Int)
(declare-fun x_25 () Bool)
(declare-fun x_26 () Int)
(declare-fun x_27 () Int)
(declare-fun x_28 () Int)
(declare-fun x_29 () Int)
(declare-fun x_30 () Int)
(declare-fun x_31 () (Array Int Int))
(declare-fun x_32 () Int)
(declare-fun x_33 () Int)
(declare-fun x_34 () Int)
(declare-fun x_35 () Int)
(declare-fun x_36 () Int)
(declare-fun x_37 () (Array Int Int))
(declare-fun x_38 () Int)
(declare-fun x_39 () Bool)
(declare-fun x_40 () Int)
(declare-fun x_41 () Int)
(declare-fun x_42 () Int)
(declare-fun x_43 () Int)
(declare-fun x_44 () Int)
(declare-fun x_45 () (Array Int Int))
(declare-fun x_46 () Int)
(declare-fun x_47 () Int)
(declare-fun x_48 () Int)
(declare-fun x_49 () Int)
(declare-fun x_50 () Int)
(declare-fun x_51 () (Array Int Int))
(declare-fun x_52 () Int)
(declare-fun x_53 () Bool)
(declare-fun x_54 () Int)
(declare-fun x_55 () Int)
(declare-fun x_56 () Int)
(declare-fun x_57 () Int)
(declare-fun x_58 () Int)
(declare-fun x_59 () (Array Int Int))
(declare-fun x_60 () Int)
(declare-fun x_61 () Int)
(declare-fun x_62 () Int)
(declare-fun x_63 () Int)
(declare-fun x_64 () Int)
(declare-fun x_65 () (Array Int Int))
(declare-fun x_66 () Int)
(declare-fun x_67 () Bool)
(declare-fun x_68 () Int)
(declare-fun x_69 () Int)
(declare-fun x_70 () Int)
(declare-fun x_71 () Int)
(declare-fun x_72 () Int)
(declare-fun x_73 () (Array Int Int))
(declare-fun x_74 () Int)
(declare-fun x_75 () Int)
(declare-fun x_76 () Int)
(declare-fun x_77 () Int)
(declare-fun x_78 () Int)
(declare-fun x_79 () (Array Int Int))
(declare-fun x_80 () Int)
(declare-fun x_81 () Bool)
(declare-fun x_82 () Int)
(declare-fun x_83 () Int)
(declare-fun x_84 () Int)
(declare-fun x_85 () Int)
(declare-fun x_86 () Int)
(declare-fun x_87 () (Array Int Int))
(declare-fun x_88 () Int)
(declare-fun x_89 () Int)
(declare-fun x_90 () Int)
(declare-fun x_91 () Int)
(declare-fun x_92 () Int)
(declare-fun x_93 () (Array Int Int))
(declare-fun x_94 () Int)
(declare-fun x_95 () Bool)
(declare-fun x_96 () Int)
(declare-fun x_97 () Int)
(declare-fun x_98 () Int)
(declare-fun x_99 () Int)
(declare-fun x_100 () Int)
(declare-fun x_101 () (Array Int Int))
(declare-fun x_102 () Int)
(declare-fun x_103 () Int)
(declare-fun x_104 () Int)
(declare-fun x_105 () Int)
(declare-fun x_106 () Int)
(declare-fun x_107 () (Array Int Int))
(declare-fun x_108 () Int)
(declare-fun x_109 () Bool)
(declare-fun x_110 () Int)
(declare-fun x_111 () Int)
(declare-fun x_112 () Int)
(declare-fun x_113 () Int)
(declare-fun x_114 () Int)
(declare-fun x_115 () (Array Int Int))
(declare-fun x_116 () Int)
(declare-fun x_117 () Int)
(declare-fun x_118 () Int)
(declare-fun x_119 () Int)
(declare-fun x_120 () Int)
(declare-fun x_121 () (Array Int Int))
(declare-fun x_122 () Int)
(declare-fun x_123 () Bool)
(declare-fun x_124 () Int)
(declare-fun x_125 () Int)
(declare-fun x_126 () Int)
(declare-fun x_127 () Int)
(declare-fun x_128 () Int)
(declare-fun x_129 () (Array Int Int))
(declare-fun x_130 () Int)
(declare-fun x_131 () Int)
(declare-fun x_132 () Int)
(declare-fun x_133 () Int)
(declare-fun x_134 () Int)
(declare-fun x_135 () (Array Int Int))
(declare-fun x_136 () Int)
(declare-fun x_137 () Bool)
(declare-fun x_138 () Int)
(declare-fun x_139 () Int)
(declare-fun x_140 () Int)
(declare-fun x_141 () Int)
(declare-fun x_142 () Int)
(declare-fun x_143 () (Array Int Int))
(declare-fun x_144 () Int)
(declare-fun x_145 () Int)
(declare-fun x_146 () Int)
(declare-fun x_147 () Int)
(declare-fun x_148 () Int)
(declare-fun x_149 () (Array Int Int))
(declare-fun x_150 () Int)
(declare-fun x_151 () Bool)
(declare-fun x_152 () Int)
(declare-fun x_153 () Int)
(declare-fun x_154 () Int)
(declare-fun x_155 () Int)
(declare-fun x_156 () Int)
(declare-fun x_157 () (Array Int Int))
(declare-fun x_158 () Int)
(declare-fun x_159 () Int)
(declare-fun x_160 () Int)
(declare-fun x_161 () Int)
(declare-fun x_162 () Int)
(declare-fun x_163 () (Array Int Int))
(declare-fun x_164 () Int)
(declare-fun x_165 () Bool)
(declare-fun x_166 () Int)
(declare-fun x_167 () Int)
(declare-fun x_168 () Int)
(declare-fun x_169 () Int)
(declare-fun x_170 () Int)
(declare-fun x_171 () (Array Int Int))
(declare-fun x_172 () Int)
(declare-fun x_173 () Int)
(declare-fun x_174 () Int)
(declare-fun x_175 () Int)
(declare-fun x_176 () Int)
(declare-fun x_177 () (Array Int Int))
(declare-fun x_178 () Int)
(declare-fun x_179 () Bool)
(declare-fun x_180 () Int)
(declare-fun x_181 () Int)
(declare-fun x_182 () Int)
(declare-fun x_183 () Int)
(declare-fun x_184 () Int)
(declare-fun x_185 () (Array Int Int))
(declare-fun x_186 () Int)
(declare-fun x_187 () Int)
(declare-fun x_188 () Int)
(declare-fun x_189 () Int)
(declare-fun x_190 () Int)
(declare-fun x_191 () Int)
(declare-fun x_192 () Int)
(declare-fun x_193 () Int)
(declare-fun x_194 () Int)
(declare-fun x_195 () Int)
(declare-fun x_196 () Int)
(declare-fun x_197 () Int)
(declare-fun x_198 () Int)
(declare-fun x_199 () Int)
(declare-fun x_200 () Int)
(declare-fun x_201 () Int)
(declare-fun x_202 () Int)
(declare-fun x_203 () Int)
(declare-fun x_204 () Int)
(declare-fun x_205 () Int)
(declare-fun x_206 () Int)
(declare-fun x_207 () Int)
(declare-fun x_208 () Int)
(declare-fun x_209 () Int)
(declare-fun x_210 () Int)
(declare-fun x_211 () Int)
(declare-fun x_212 () Int)
(declare-fun x_213 () Int)
(declare-fun x_214 () Int)
(declare-fun x_215 () Int)
(declare-fun x_216 () Int)
(declare-fun x_217 () Int)
(declare-fun x_218 () Int)
(declare-fun x_219 () Int)
(declare-fun x_220 () Int)
(declare-fun x_221 () Int)
(declare-fun x_222 () Int)
(declare-fun x_223 () Int)
(declare-fun x_224 () Int)
(declare-fun x_225 () Int)
(declare-fun x_226 () Int)
(declare-fun x_227 () Int)
(declare-fun x_228 () Int)
(declare-fun x_229 () Int)
(declare-fun x_230 () Int)
(declare-fun x_231 () Int)
(declare-fun x_232 () Int)
(declare-fun x_233 () Int)
(declare-fun x_234 () Int)
(declare-fun x_235 () Int)
(declare-fun x_236 () Int)
(declare-fun x_237 () Int)
(declare-fun x_238 () Int)
(declare-fun x_239 () Int)
(declare-fun x_240 () Int)
(declare-fun x_241 () Int)
(declare-fun x_242 () Int)
(declare-fun x_243 () Int)
(declare-fun x_244 () Int)
(declare-fun x_245 () Int)
(declare-fun x_246 () Int)
(declare-fun x_247 () Int)
(declare-fun x_248 () Int)
(declare-fun x_249 () Int)
(declare-fun x_250 () Int)
(declare-fun x_251 () Int)
(declare-fun x_252 () Int)
(declare-fun x_253 () Int)
(declare-fun x_254 () Int)
(declare-fun x_255 () Int)
(declare-fun x_256 () Int)
(declare-fun x_257 () Int)
(declare-fun x_258 () Int)
(declare-fun x_259 () Int)
(declare-fun x_260 () Int)
(declare-fun x_261 () Int)
(declare-fun x_262 () Int)
(declare-fun x_263 () Int)
(declare-fun x_264 () Int)
(declare-fun x_265 () Int)
(declare-fun x_266 () Int)
(declare-fun x_267 () Int)
(declare-fun x_268 () Int)
(declare-fun x_269 () Int)
(declare-fun x_270 () Int)
(declare-fun x_271 () Int)
(assert (let ((?v_63 (= x_9 x_7)) (?v_60 (= x_10 x_0)) (?v_61 (= x_11 x_5)) (?v_64 (= x_12 x_1)) (?v_62 (not (<= x_1 x_0))) (?v_58 (= x_23 x_9)) (?v_55 (= x_24 x_10)) (?v_56 (= x_25 x_11)) (?v_59 (= x_26 x_12)) (?v_57 (not (<= x_12 x_10))) (?v_53 (= x_37 x_23)) (?v_50 (= x_38 x_24)) (?v_51 (= x_39 x_25)) (?v_54 (= x_40 x_26)) (?v_52 (not (<= x_26 x_24))) (?v_48 (= x_51 x_37)) (?v_45 (= x_52 x_38)) (?v_46 (= x_53 x_39)) (?v_49 (= x_54 x_40)) (?v_47 (not (<= x_40 x_38))) (?v_43 (= x_65 x_51)) (?v_40 (= x_66 x_52)) (?v_41 (= x_67 x_53)) (?v_44 (= x_68 x_54)) (?v_42 (not (<= x_54 x_52))) (?v_38 (= x_79 x_65)) (?v_35 (= x_80 x_66)) (?v_36 (= x_81 x_67)) (?v_39 (= x_82 x_68)) (?v_37 (not (<= x_68 x_66))) (?v_33 (= x_93 x_79)) (?v_30 (= x_94 x_80)) (?v_31 (= x_95 x_81)) (?v_34 (= x_96 x_82)) (?v_32 (not (<= x_82 x_80))) (?v_28 (= x_107 x_93)) (?v_25 (= x_108 x_94)) (?v_26 (= x_109 x_95)) (?v_29 (= x_110 x_96)) (?v_27 (not (<= x_96 x_94))) (?v_23 (= x_121 x_107)) (?v_20 (= x_122 x_108)) (?v_21 (= x_123 x_109)) (?v_24 (= x_124 x_110)) (?v_22 (not (<= x_110 x_108))) (?v_18 (= x_135 x_121)) (?v_15 (= x_136 x_122)) (?v_16 (= x_137 x_123)) (?v_19 (= x_138 x_124)) (?v_17 (not (<= x_124 x_122))) (?v_13 (= x_149 x_135)) (?v_10 (= x_150 x_136)) (?v_11 (= x_151 x_137)) (?v_14 (= x_152 x_138)) (?v_12 (not (<= x_138 x_136))) (?v_8 (= x_163 x_149)) (?v_5 (= x_164 x_150)) (?v_6 (= x_165 x_151)) (?v_9 (= x_166 x_152)) (?v_7 (not (<= x_152 x_150))) (?v_3 (= x_177 x_163)) (?v_0 (= x_178 x_164)) (?v_1 (= x_179 x_165)) (?v_4 (= x_180 x_166)) (?v_2 (not (<= x_166 x_164))) (?v_65 (select x_2 x_3)) (?v_66 (select x_2 x_4))) (and (and (and (and (and (and (and (and (and (and (and (and (and (and (and (and (and (and (and (and (and (and (and (and (and (and (and (and (and (and (and (and (and (and (and (and (and (and (and (and (and (and (and (and (and (and (and (and (and (and (and (and (and (and (and (and (and (and (and (and (and (and (and (and (and (and (and (and (and (and (and (and (and (and (and (and (and (and (and (and (and (and (and (and (and (and (and (and (and (and (and (and (and (and (and (and (and (and (and (and (and (and (and (and (and (and (and (and (and (and (and (and (and (and (and (and (and (and (and (and (and (and (and (and (and (and (and (and (not (= x_4 x_3)) (= x_0 0)) (= x_1 0)) (= x_190 ?v_65)) (= x_190 1)) (= x_191 ?v_66)) (= x_191 1)) x_5) (= x_6 0)) (= x_192 (select x_7 x_0))) (= x_8 x_192)) (= x_193 (select x_9 x_10))) (= x_22 x_193)) (= x_194 (select x_23 x_24))) (= x_36 x_194)) (= x_195 (select x_37 x_38))) (= x_50 x_195)) (= x_196 (select x_51 x_52))) (= x_64 x_196)) (= x_197 (select x_65 x_66))) (= x_78 x_197)) (= x_198 (select x_79 x_80))) (= x_92 x_198)) (= x_199 (select x_93 x_94))) (= x_106 x_199)) (= x_200 (select x_107 x_108))) (= x_120 x_200)) (= x_201 (select x_121 x_122))) (= x_134 x_201)) (= x_202 (select x_135 x_136))) (= x_148 x_202)) (= x_203 (select x_149 x_150))) (= x_162 x_203)) (= x_204 (select x_163 x_164))) (= x_176 x_204)) (= x_181 (+ x_167 1))) (= x_205 (select x_171 x_183))) (= x_206 (select x_171 x_186))) (= x_207 (select x_171 x_188))) (or (or (or (and (and (and (and (and (and (and (= x_182 0) (= x_180 (+ x_166 1))) ?v_0) ?v_1) (= x_184 x_183)) (= x_205 1)) (= x_185 (store x_171 x_183 2))) (= x_177 (store x_163 x_166 x_183))) (and (and (and (and (and (and (and (and (and (= x_182 1) ?v_2) ?v_0) ?v_1) ?v_3) ?v_4) (= x_187 x_186)) (= x_206 2)) (= x_176 x_186)) (= x_185 (store x_171 x_186 3)))) (and (and (and (and (and (and (and (and (and (= x_182 2) ?v_2) (= x_178 (+ x_164 1))) ?v_1) ?v_3) ?v_4) (= x_189 x_188)) (= x_207 3)) (or (not (<= x_167 12)) (= x_176 x_188))) (= x_185 (store x_171 x_188 1)))) (and (and (and (and (and (= x_182 3) ?v_3) ?v_0) ?v_1) (= x_185 x_171)) ?v_4))) (= x_167 (+ x_153 1))) (= x_208 (select x_157 x_169))) (= x_209 (select x_157 x_172))) (= x_210 (select x_157 x_174))) (or (or (or (and (and (and (and (and (and (and (= x_168 0) (= x_166 (+ x_152 1))) ?v_5) ?v_6) (= x_170 x_169)) (= x_208 1)) (= x_171 (store x_157 x_169 2))) (= x_163 (store x_149 x_152 x_169))) (and (and (and (and (and (and (and (and (and (= x_168 1) ?v_7) ?v_5) ?v_6) ?v_8) ?v_9) (= x_173 x_172)) (= x_209 2)) (= x_162 x_172)) (= x_171 (store x_157 x_172 3)))) (and (and (and (and (and (and (and (and (and (= x_168 2) ?v_7) (= x_164 (+ x_150 1))) ?v_6) ?v_8) ?v_9) (= x_175 x_174)) (= x_210 3)) (or (not (<= x_153 12)) (= x_162 x_174))) (= x_171 (store x_157 x_174 1)))) (and (and (and (and (and (= x_168 3) ?v_8) ?v_5) ?v_6) (= x_171 x_157)) ?v_9))) (= x_153 (+ x_139 1))) (= x_211 (select x_143 x_155))) (= x_212 (select x_143 x_158))) (= x_213 (select x_143 x_160))) (or (or (or (and (and (and (and (and (and (and (= x_154 0) (= x_152 (+ x_138 1))) ?v_10) ?v_11) (= x_156 x_155)) (= x_211 1)) (= x_157 (store x_143 x_155 2))) (= x_149 (store x_135 x_138 x_155))) (and (and (and (and (and (and (and (and (and (= x_154 1) ?v_12) ?v_10) ?v_11) ?v_13) ?v_14) (= x_159 x_158)) (= x_212 2)) (= x_148 x_158)) (= x_157 (store x_143 x_158 3)))) (and (and (and (and (and (and (and (and (and (= x_154 2) ?v_12) (= x_150 (+ x_136 1))) ?v_11) ?v_13) ?v_14) (= x_161 x_160)) (= x_213 3)) (or (not (<= x_139 12)) (= x_148 x_160))) (= x_157 (store x_143 x_160 1)))) (and (and (and (and (and (= x_154 3) ?v_13) ?v_10) ?v_11) (= x_157 x_143)) ?v_14))) (= x_139 (+ x_125 1))) (= x_214 (select x_129 x_141))) (= x_215 (select x_129 x_144))) (= x_216 (select x_129 x_146))) (or (or (or (and (and (and (and (and (and (and (= x_140 0) (= x_138 (+ x_124 1))) ?v_15) ?v_16) (= x_142 x_141)) (= x_214 1)) (= x_143 (store x_129 x_141 2))) (= x_135 (store x_121 x_124 x_141))) (and (and (and (and (and (and (and (and (and (= x_140 1) ?v_17) ?v_15) ?v_16) ?v_18) ?v_19) (= x_145 x_144)) (= x_215 2)) (= x_134 x_144)) (= x_143 (store x_129 x_144 3)))) (and (and (and (and (and (and (and (and (and (= x_140 2) ?v_17) (= x_136 (+ x_122 1))) ?v_16) ?v_18) ?v_19) (= x_147 x_146)) (= x_216 3)) (or (not (<= x_125 12)) (= x_134 x_146))) (= x_143 (store x_129 x_146 1)))) (and (and (and (and (and (= x_140 3) ?v_18) ?v_15) ?v_16) (= x_143 x_129)) ?v_19))) (= x_125 (+ x_111 1))) (= x_217 (select x_115 x_127))) (= x_218 (select x_115 x_130))) (= x_219 (select x_115 x_132))) (or (or (or (and (and (and (and (and (and (and (= x_126 0) (= x_124 (+ x_110 1))) ?v_20) ?v_21) (= x_128 x_127)) (= x_217 1)) (= x_129 (store x_115 x_127 2))) (= x_121 (store x_107 x_110 x_127))) (and (and (and (and (and (and (and (and (and (= x_126 1) ?v_22) ?v_20) ?v_21) ?v_23) ?v_24) (= x_131 x_130)) (= x_218 2)) (= x_120 x_130)) (= x_129 (store x_115 x_130 3)))) (and (and (and (and (and (and (and (and (and (= x_126 2) ?v_22) (= x_122 (+ x_108 1))) ?v_21) ?v_23) ?v_24) (= x_133 x_132)) (= x_219 3)) (or (not (<= x_111 12)) (= x_120 x_132))) (= x_129 (store x_115 x_132 1)))) (and (and (and (and (and (= x_126 3) ?v_23) ?v_20) ?v_21) (= x_129 x_115)) ?v_24))) (= x_111 (+ x_97 1))) (= x_220 (select x_101 x_113))) (= x_221 (select x_101 x_116))) (= x_222 (select x_101 x_118))) (or (or (or (and (and (and (and (and (and (and (= x_112 0) (= x_110 (+ x_96 1))) ?v_25) ?v_26) (= x_114 x_113)) (= x_220 1)) (= x_115 (store x_101 x_113 2))) (= x_107 (store x_93 x_96 x_113))) (and (and (and (and (and (and (and (and (and (= x_112 1) ?v_27) ?v_25) ?v_26) ?v_28) ?v_29) (= x_117 x_116)) (= x_221 2)) (= x_106 x_116)) (= x_115 (store x_101 x_116 3)))) (and (and (and (and (and (and (and (and (and (= x_112 2) ?v_27) (= x_108 (+ x_94 1))) ?v_26) ?v_28) ?v_29) (= x_119 x_118)) (= x_222 3)) (or (not (<= x_97 12)) (= x_106 x_118))) (= x_115 (store x_101 x_118 1)))) (and (and (and (and (and (= x_112 3) ?v_28) ?v_25) ?v_26) (= x_115 x_101)) ?v_29))) (= x_97 (+ x_83 1))) (= x_223 (select x_87 x_99))) (= x_224 (select x_87 x_102))) (= x_225 (select x_87 x_104))) (or (or (or (and (and (and (and (and (and (and (= x_98 0) (= x_96 (+ x_82 1))) ?v_30) ?v_31) (= x_100 x_99)) (= x_223 1)) (= x_101 (store x_87 x_99 2))) (= x_93 (store x_79 x_82 x_99))) (and (and (and (and (and (and (and (and (and (= x_98 1) ?v_32) ?v_30) ?v_31) ?v_33) ?v_34) (= x_103 x_102)) (= x_224 2)) (= x_92 x_102)) (= x_101 (store x_87 x_102 3)))) (and (and (and (and (and (and (and (and (and (= x_98 2) ?v_32) (= x_94 (+ x_80 1))) ?v_31) ?v_33) ?v_34) (= x_105 x_104)) (= x_225 3)) (or (not (<= x_83 12)) (= x_92 x_104))) (= x_101 (store x_87 x_104 1)))) (and (and (and (and (and (= x_98 3) ?v_33) ?v_30) ?v_31) (= x_101 x_87)) ?v_34))) (= x_83 (+ x_69 1))) (= x_226 (select x_73 x_85))) (= x_227 (select x_73 x_88))) (= x_228 (select x_73 x_90))) (or (or (or (and (and (and (and (and (and (and (= x_84 0) (= x_82 (+ x_68 1))) ?v_35) ?v_36) (= x_86 x_85)) (= x_226 1)) (= x_87 (store x_73 x_85 2))) (= x_79 (store x_65 x_68 x_85))) (and (and (and (and (and (and (and (and (and (= x_84 1) ?v_37) ?v_35) ?v_36) ?v_38) ?v_39) (= x_89 x_88)) (= x_227 2)) (= x_78 x_88)) (= x_87 (store x_73 x_88 3)))) (and (and (and (and (and (and (and (and (and (= x_84 2) ?v_37) (= x_80 (+ x_66 1))) ?v_36) ?v_38) ?v_39) (= x_91 x_90)) (= x_228 3)) (or (not (<= x_69 12)) (= x_78 x_90))) (= x_87 (store x_73 x_90 1)))) (and (and (and (and (and (= x_84 3) ?v_38) ?v_35) ?v_36) (= x_87 x_73)) ?v_39))) (= x_69 (+ x_55 1))) (= x_229 (select x_59 x_71))) (= x_230 (select x_59 x_74))) (= x_231 (select x_59 x_76))) (or (or (or (and (and (and (and (and (and (and (= x_70 0) (= x_68 (+ x_54 1))) ?v_40) ?v_41) (= x_72 x_71)) (= x_229 1)) (= x_73 (store x_59 x_71 2))) (= x_65 (store x_51 x_54 x_71))) (and (and (and (and (and (and (and (and (and (= x_70 1) ?v_42) ?v_40) ?v_41) ?v_43) ?v_44) (= x_75 x_74)) (= x_230 2)) (= x_64 x_74)) (= x_73 (store x_59 x_74 3)))) (and (and (and (and (and (and (and (and (and (= x_70 2) ?v_42) (= x_66 (+ x_52 1))) ?v_41) ?v_43) ?v_44) (= x_77 x_76)) (= x_231 3)) (or (not (<= x_55 12)) (= x_64 x_76))) (= x_73 (store x_59 x_76 1)))) (and (and (and (and (and (= x_70 3) ?v_43) ?v_40) ?v_41) (= x_73 x_59)) ?v_44))) (= x_55 (+ x_41 1))) (= x_232 (select x_45 x_57))) (= x_233 (select x_45 x_60))) (= x_234 (select x_45 x_62))) (or (or (or (and (and (and (and (and (and (and (= x_56 0) (= x_54 (+ x_40 1))) ?v_45) ?v_46) (= x_58 x_57)) (= x_232 1)) (= x_59 (store x_45 x_57 2))) (= x_51 (store x_37 x_40 x_57))) (and (and (and (and (and (and (and (and (and (= x_56 1) ?v_47) ?v_45) ?v_46) ?v_48) ?v_49) (= x_61 x_60)) (= x_233 2)) (= x_50 x_60)) (= x_59 (store x_45 x_60 3)))) (and (and (and (and (and (and (and (and (and (= x_56 2) ?v_47) (= x_52 (+ x_38 1))) ?v_46) ?v_48) ?v_49) (= x_63 x_62)) (= x_234 3)) (or (not (<= x_41 12)) (= x_50 x_62))) (= x_59 (store x_45 x_62 1)))) (and (and (and (and (and (= x_56 3) ?v_48) ?v_45) ?v_46) (= x_59 x_45)) ?v_49))) (= x_41 (+ x_27 1))) (= x_235 (select x_31 x_43))) (= x_236 (select x_31 x_46))) (= x_237 (select x_31 x_48))) (or (or (or (and (and (and (and (and (and (and (= x_42 0) (= x_40 (+ x_26 1))) ?v_50) ?v_51) (= x_44 x_43)) (= x_235 1)) (= x_45 (store x_31 x_43 2))) (= x_37 (store x_23 x_26 x_43))) (and (and (and (and (and (and (and (and (and (= x_42 1) ?v_52) ?v_50) ?v_51) ?v_53) ?v_54) (= x_47 x_46)) (= x_236 2)) (= x_36 x_46)) (= x_45 (store x_31 x_46 3)))) (and (and (and (and (and (and (and (and (and (= x_42 2) ?v_52) (= x_38 (+ x_24 1))) ?v_51) ?v_53) ?v_54) (= x_49 x_48)) (= x_237 3)) (or (not (<= x_27 12)) (= x_36 x_48))) (= x_45 (store x_31 x_48 1)))) (and (and (and (and (and (= x_42 3) ?v_53) ?v_50) ?v_51) (= x_45 x_31)) ?v_54))) (= x_27 (+ x_13 1))) (= x_238 (select x_17 x_29))) (= x_239 (select x_17 x_32))) (= x_240 (select x_17 x_34))) (or (or (or (and (and (and (and (and (and (and (= x_28 0) (= x_26 (+ x_12 1))) ?v_55) ?v_56) (= x_30 x_29)) (= x_238 1)) (= x_31 (store x_17 x_29 2))) (= x_23 (store x_9 x_12 x_29))) (and (and (and (and (and (and (and (and (and (= x_28 1) ?v_57) ?v_55) ?v_56) ?v_58) ?v_59) (= x_33 x_32)) (= x_239 2)) (= x_22 x_32)) (= x_31 (store x_17 x_32 3)))) (and (and (and (and (and (and (and (and (and (= x_28 2) ?v_57) (= x_24 (+ x_10 1))) ?v_56) ?v_58) ?v_59) (= x_35 x_34)) (= x_240 3)) (or (not (<= x_13 12)) (= x_22 x_34))) (= x_31 (store x_17 x_34 1)))) (and (and (and (and (and (= x_28 3) ?v_58) ?v_55) ?v_56) (= x_31 x_17)) ?v_59))) (= x_13 (+ x_6 1))) (= x_241 (select x_2 x_15))) (= x_242 (select x_2 x_18))) (= x_243 (select x_2 x_20))) (or (or (or (and (and (and (and (and (and (and (= x_14 0) (= x_12 (+ x_1 1))) ?v_60) ?v_61) (= x_16 x_15)) (= x_241 1)) (= x_17 (store x_2 x_15 2))) (= x_9 (store x_7 x_1 x_15))) (and (and (and (and (and (and (and (and (and (= x_14 1) ?v_62) ?v_60) ?v_61) ?v_63) ?v_64) (= x_19 x_18)) (= x_242 2)) (= x_8 x_18)) (= x_17 (store x_2 x_18 3)))) (and (and (and (and (and (and (and (and (and (= x_14 2) ?v_62) (= x_10 (+ x_0 1))) ?v_61) ?v_63) ?v_64) (= x_21 x_20)) (= x_243 3)) (or (not (<= x_6 12)) (= x_8 x_20))) (= x_17 (store x_2 x_20 1)))) (and (and (and (and (and (= x_14 3) ?v_63) ?v_60) ?v_61) (= x_17 x_2)) ?v_64))) (= x_244 (select x_185 x_3))) (= x_245 (select x_185 x_4))) (= x_246 (select x_171 x_3))) (= x_247 (select x_171 x_4))) (= x_248 (select x_157 x_3))) (= x_249 (select x_157 x_4))) (= x_250 (select x_143 x_3))) (= x_251 (select x_143 x_4))) (= x_252 (select x_129 x_3))) (= x_253 (select x_129 x_4))) (= x_254 (select x_115 x_3))) (= x_255 (select x_115 x_4))) (= x_256 (select x_101 x_3))) (= x_257 (select x_101 x_4))) (= x_258 (select x_87 x_3))) (= x_259 (select x_87 x_4))) (= x_260 (select x_73 x_3))) (= x_261 (select x_73 x_4))) (= x_262 (select x_59 x_3))) (= x_263 (select x_59 x_4))) (= x_264 (select x_45 x_3))) (= x_265 (select x_45 x_4))) (= x_266 (select x_31 x_3))) (= x_267 (select x_31 x_4))) (= x_268 (select x_17 x_3))) (= x_269 (select x_17 x_4))) (= x_270 ?v_65)) (= x_271 ?v_66)) (or (or (or (or (or (or (or (or (or (or (or (or (or (and (= x_244 3) (= x_245 3)) (and (= x_246 3) (= x_247 3))) (and (= x_248 3) (= x_249 3))) (and (= x_250 3) (= x_251 3))) (and (= x_252 3) (= x_253 3))) (and (= x_254 3) (= x_255 3))) (and (= x_256 3) (= x_257 3))) (and (= x_258 3) (= x_259 3))) (and (= x_260 3) (= x_261 3))) (and (= x_262 3) (= x_263 3))) (and (= x_264 3) (= x_265 3))) (and (= x_266 3) (= x_267 3))) (and (= x_268 3) (= x_269 3))) (and (= x_270 3) (= x_271 3))))))
; --- Injected Array Sum Constraint ---
(assert (sum x_7 (+ x_211 (+ x_58 x_80))))
(assert (sum x_163 (+ x_172 (+ x_36 x_36))))
(assert (sum x_135 (+ x_139 (+ x_57 x_108))))
(assert (sum x_65 (+ x_118 (+ x_258 x_231))))
(assert (sum x_171 (+ x_266 (+ x_166 x_155))))
(assert (sum x_177 (+ x_3 (+ x_132 x_239))))
(assert (sum x_163 (+ x_241 (+ x_196 x_175))))
(assert (sum x_129 (+ x_80 (+ x_206 x_266))))
(assert (sum x_79 (+ x_66 (+ x_213 x_193))))
(assert (sum x_51 (+ x_248 (+ x_76 x_152))))
(check-sat)
(exit)